c FILE: I25.clq
c
c SOURCE: Manually created by Breno Viana
c
c Graph Stats
c number of vertices  : 125
c number of edges     : 175
p col 125 175
e 1 2
e 1 3
e 1 4
e 1 5
e 1 111
e 1 112
e 1 113
e 2 3
e 2 4
e 2 5
e 2 114
e 2 115
e 2 116
e 3 4
e 3 5
e 3 117
e 3 118
e 3 119
e 4 5
e 4 120
e 4 121
e 4 122
e 5 123
e 5 124
e 5 125
e 6 21
e 6 22
e 6 23
e 6 24
e 6 25
e 6 26
e 6 111
e 7 27
e 7 28
e 7 29
e 7 30
e 7 31
e 7 32
e 7 112
e 8 33
e 8 34
e 8 35
e 8 36
e 8 37
e 8 38
e 8 113
e 9 39
e 9 40
e 9 41
e 9 42
e 9 43
e 9 44
e 9 114
e 10 45
e 10 46
e 10 47
e 10 48
e 10 49
e 10 50
e 10 115
e 11 51
e 11 52
e 11 53
e 11 54
e 11 55
e 11 56
e 11 116
e 12 57
e 12 58
e 12 59
e 12 60
e 12 61
e 12 62
e 12 117
e 13 63
e 13 64
e 13 65
e 13 66
e 13 67
e 13 68
e 13 118
e 14 69
e 14 70
e 14 71
e 14 72
e 14 73
e 14 74
e 14 119
e 15 75
e 15 76
e 15 77
e 15 78
e 15 79
e 15 80
e 15 120
e 16 81
e 16 82
e 16 83
e 16 84
e 16 85
e 16 86
e 16 121
e 17 87
e 17 88
e 17 89
e 17 90
e 17 91
e 17 92
e 17 122
e 18 93
e 18 94
e 18 95
e 18 96
e 18 97
e 18 98
e 18 123
e 19 99
e 19 100
e 19 101
e 19 102
e 19 103
e 19 104
e 19 124
e 20 105
e 20 106
e 20 107
e 20 108
e 20 109
e 20 110
e 20 125
e 21 22
e 23 24
e 25 26
e 27 28
e 29 30
e 31 32
e 33 34
e 35 36
e 37 38
e 39 40
e 41 42
e 43 44
e 45 46
e 47 48
e 49 50
e 51 52
e 53 54
e 55 56
e 57 58
e 59 60
e 61 62
e 63 64
e 65 66
e 67 68
e 69 70
e 71 72
e 73 74
e 75 76
e 77 78
e 79 80
e 81 82
e 83 84
e 85 86
e 87 88
e 89 90
e 91 92
e 93 94
e 95 96
e 97 98
e 99 100
e 101 102
e 103 104
e 105 106
e 107 108
e 109 110
